g3 1 1 0	# problem unknown
 12 2 1 0 2 	# vars, constraints, objectives, ranges, eqns
 0 1 0 0 0 0	# nonlinear constrs, objs; ccons: lin, nonlin, nd, nzlb
 0 0	# network constraints: nonlinear, linear
 0 12 0 	# nonlinear vars in constraints, objectives, both
 0 0 0 1	# linear network variables; functions; arith, flags
 0 0 0 0 12 	# discrete variables: binary, integer, nonlinear (b,c,o)
 12 12 	# nonzeros in Jacobian, obj. gradient
 0 0	# max name lengths: constraints, variables
 0 0 0 0 0	# common exprs: b,c,o,c1,o1
C0
n0
C1
n0
O0 1
o54
6
o2
n1.4426950408889634
o43
o0
o2
o2
n26.54932499919727
v0
o3
n1.0
o0
o2
o2
o0
o2
n-1
v1
n1
n0.020164266253024834
n100
n1
n1
o2
n1.4426950408889634
o43
o0
o2
o2
n8.156761260538817
v2
o3
n1.0
o0
o2
o2
o0
o2
n-1
v3
n1
n0.04353507505992858
n100
n1
n1
o2
n1.4426950408889634
o43
o0
o2
o2
n2408.55809362693
v4
o3
n1.0
o0
o2
o2
o0
o2
n-1
v5
n1
n0.05991469368813834
n100
n1
n1
o2
n1.4426950408889634
o43
o0
o2
o2
n19.144027399854476
v7
o3
n1.0
o0
o2
o2
o0
o2
n-1
v6
n1
n0.06185885418885737
n100
n1
n1
o2
n1.4426950408889634
o43
o0
o2
o2
n3.9930269004831125
v9
o3
n1.0
o0
o2
o2
o0
o2
n-1
v8
n1
n0.009355407747506612
n100
n1
n1
o2
n1.4426950408889634
o43
o0
o2
o2
n11.721816476363738
v11
o3
n1.0
o0
o2
o2
o0
o2
n-1
v10
n1
n0.045406668801663455
n100
n1
n1
x12
0 1.0
1 0.0
2 0.0
3 0.0
4 1.0
5 1.0
6 1.0
7 0.9999999999999997
8 0.0
9 1.0
10 1.0
11 1.0000000000000004
r
4 4.0
4 4.0
b
0 0 4
0 0 4
0 0 4
0 0 4
0 0 4
0 0 4
0 0 4
0 0 4
0 0 4
0 0 4
0 0 4
0 0 4
k11
1
2
3
4
5
6
7
8
9
10
11
J0 6
0 1
2 1
4 1
6 1
8 1
10 1
J1 6
1 1
3 1
5 1
7 1
9 1
11 1
G0 12
0 0
1 0
2 0
3 0
4 0
5 0
6 0
7 0
8 0
9 0
10 0
11 0
